CMPL model generation - running

CMPL version: 1.11.0
Authors: Thomas Schleiff, Mike Steglich
Distributed under the GPLv3 

create model instance ...
write model instance ...
CMPL model generation - finished

Solver - running


Welcome to IBM(R) ILOG(R) CPLEX(R) Interactive Optimizer 12.7.1.0
  with Simplex, Mixed Integer & Barrier Optimizers
5725-A06 5725-A29 5724-Y48 5724-Y49 5724-Y54 5724-Y55 5655-Y21
Copyright IBM Corp. 1988, 2017.  All Rights Reserved.

Type 'help' for a list of available commands.
Type 'help' followed by a command name for more
information on commands.

CPLEX> Specified objective sense: MINIMIZE
Selected objective  name:  line[1]
Selected RHS        name:  RHS
Selected bound      name:  BOUND
Problem '/tmp/cmpl.T24330.mps' read.
Read time = 0.06 sec. (8.18 ticks)
CPLEX> CPXPARAM_Read_APIEncoding                        "UTF-8"
Tried aggregator 3 times.
MIP Presolve eliminated 19166 rows and 30564 columns.
MIP Presolve modified 340 coefficients.
Aggregator did 669 substitutions.
Reduced MIP has 2520 rows, 3360 columns, and 9788 nonzeros.
Reduced MIP has 3192 binaries, 0 generals, 0 SOSs, and 0 indicators.
Presolve time = 0.06 sec. (40.60 ticks)
Found incumbent of value 758.494351 after 0.10 sec. (63.86 ticks)
Probing fixed 7 vars, tightened 0 bounds.
Probing time = 0.02 sec. (4.43 ticks)
Tried aggregator 1 time.
MIP Presolve eliminated 0 rows and 7 columns.
MIP Presolve modified 35 coefficients.
Reduced MIP has 2520 rows, 3353 columns, and 9774 nonzeros.
Reduced MIP has 3353 binaries, 0 generals, 0 SOSs, and 0 indicators.
Presolve time = 0.01 sec. (8.27 ticks)
Probing time = 0.01 sec. (2.69 ticks)
Clique table members: 6048.
MIP emphasis: balance optimality and feasibility.
MIP search method: dynamic search.
Parallel mode: none, using 1 thread.
Root relaxation solution time = 0.01 sec. (5.98 ticks)

        Nodes                                         Cuts/
   Node  Left     Objective  IInf  Best Integer    Best Bound    ItCnt     Gap

*     0+    0                          758.4944      -32.2300           104.25%
      0     0      266.0642     8      758.4944      266.0642      205   64.92%
*     0+    0                          272.1469      266.0642             2.24%
*     0+    0                          266.2928      266.0642             0.09%
*     0     0      integral     0      266.2630      Cuts: 18      210    0.00%
      0     0        cutoff            266.2630      266.2630      210    0.00%
Elapsed time = 0.18 sec. (108.17 ticks, tree = 0.01 MB, solutions = 4)

Clique cuts applied:  3
Cover cuts applied:  10
Gomory fractional cuts applied:  5

Root node processing (before b&c):
  Real time             =    0.19 sec. (109.89 ticks)
Sequential b&c:
  Real time             =    0.00 sec. (0.00 ticks)
                          ------------
Total (root+branch&cut) =    0.19 sec. (109.89 ticks)

Solution pool: 4 solutions saved.

MIP - Integer optimal solution:  Objective =  2.6626299400e+02
Solution time =    0.19 sec.  Iterations = 210  Nodes = 0
Deterministic time = 109.99 ticks  (591.44 ticks/sec)

CPLEX> Incumbent solution written to file '/tmp/cmpl.T24330.gsol'.
CPLEX> 
CMPL: Time used for model generation: 1 seconds
CMPL: Time used for solving the model: 1 seconds


Solution written to ASCII file: results/output_generated_conf_0.6/2017-02-06-4/fair-nonlinear.sol

Solver - finished
